
Gurobi 6.5.2 (linux64) logging started Tue Sep  6 10:06:19 2016

Optimize a model with 101 rows, 418 columns and 837 nonzeros
Coefficient statistics:
  Matrix range    [1e+00, 2e+00]
  Objective range [1e+00, 1e+02]
  Bounds range    [1e+00, 1e+00]
  RHS range       [1e+00, 1e+00]
Presolve removed 51 rows and 50 columns
Presolve time: 0.00s
Presolved: 50 rows, 368 columns, 736 nonzeros
Variable types: 0 continuous, 368 integer (368 binary)
Found heuristic solution: objective 2652.0000000

Root relaxation: objective 1.070500e+03, 65 iterations, 0.00 seconds

    Nodes    |    Current Node    |     Objective Bounds      |     Work
 Expl Unexpl |  Obj  Depth IntInf | Incumbent    BestBd   Gap | It/Node Time

     0     0 1070.50000    0    8 2652.00000 1070.50000  59.6%     -    0s
     0     0 1074.05556    0   26 2652.00000 1074.05556  59.5%     -    0s
     0     0 1074.50000    0   18 2652.00000 1074.50000  59.5%     -    0s
     0     0 1074.80000    0   20 2652.00000 1074.80000  59.5%     -    0s
     0     0 1075.14286    0   14 2652.00000 1075.14286  59.5%     -    0s
     0     0 1075.16667    0   14 2652.00000 1075.16667  59.5%     -    0s
     0     0 1075.16667    0   14 2652.00000 1075.16667  59.5%     -    0s
     0     2 1075.16667    0   14 2652.00000 1075.16667  59.5%     -    0s
*  258   178              55    1211.0000000 1075.93103  11.2%   4.1    0s
*  393   274              35    1167.0000000 1077.33333  7.68%   4.3    0s
*  587   372              39    1148.0000000 1077.37500  6.15%   4.2    0s
*  626   301              30    1103.0000000 1077.37500  2.32%   4.3    0s
*  744   313              16    1101.0000000 1079.00000  2.00%   4.3    0s
* 1347   536              11    1096.0000000 1081.00000  1.37%   3.8    0s
* 1636   569              19    1094.0000000 1082.00000  1.10%   3.8    0s
* 1666   467              15    1091.0000000 1082.00000  0.82%   3.8    0s
* 1774     4              14    1083.0000000 1082.00000  0.09%   3.8    0s

Cutting planes:
  Gomory: 4
  MIR: 1
  Zero half: 3
  Lazy constraints: 334

Explored 1847 nodes (6997 simplex iterations) in 0.33 seconds
Thread count was 8 (of 8 available processors)

Optimal solution found (tolerance 1.00e-04)
Best objective 1.083000000000e+03, best bound 1.083000000000e+03, gap 0.0%
